
%    +---------------+
% 10 | | | | | | | | |
% 9  | | | | | | | | |
% 8  | | | | | | | | |
% 7  | | | | | | | | |
% 6  | | | | | | | | |
% 5  | | | | | |6| | |
% 4  | | | | |4| | | |
% 3  | | |1|1| | | | |
% 2  | | |1|1|2| | | |
% 1  | | |3| |5| | | |
%    +---------------+
n=8;
m=10;
h=2;
%maxT=30;
boxNumber=6;
boxSideLen = [2, 1, 1, 1, 1, 1];
boxStartX  = [3, 5, 3, 5, 5, 6];
boxStartY  = [2, 2, 1, 4, 1, 5];
